282 5
10 10 10 10 10 

0 0 0 0 0 0 2 2 24 
0 0 0 0 0 0 3 3 10 22 
9 0 1 0 0 1 1 4 
1 0 3 0 0 2 1 5 
6 0 1 0 0 3 1 6 
1 0 4 0 0 2 3 19 13 7 
9 0 3 0 0 3 1 8 
4 0 2 0 0 1 1 9 
10 0 2 0 0 1 2 21 11 
5 0 3 0 0 3 2 19 12 
2 0 2 0 0 4 1 12 
7 0 3 0 0 2 1 14 
1 0 2 0 0 3 1 14 
3 0 2 0 0 1 1 15 
8 0 2 0 0 1 1 16 
9 0 3 0 0 5 1 17 
6 0 3 0 0 2 1 18 
10 0 3 0 0 2 2 20 44 
3 0 2 0 0 4 1 20 
2 0 3 0 0 1 1 23 
7 0 4 0 0 5 1 23 
7 0 2 0 0 4 1 23 
0 0 0 0 0 0 1 60 
0 0 0 0 0 0 1 25 
7 0 1 0 0 0 3 27 26 149 
8 0 2 0 0 0 2 30 28 
10 0 5 0 0 0 1 28 
1 0 2 0 0 0 1 29 
4 0 1 0 0 0 1 31 
2 0 3 0 0 0 1 31 
5 0 2 0 0 0 1 32 
5 0 3 0 0 0 2 34 33 
7 0 3 0 0 0 1 35 
8 0 3 0 0 0 1 35 
0 0 0 0 0 0 2 36 48 
0 0 0 0 0 0 4 37 39 40 42 
1 0 0 1 0 0 1 38 
6 0 0 3 0 0 1 41 
6 0 0 3 0 0 1 41 
5 0 0 1 0 0 1 41 
6 0 0 2 0 0 2 43 89 
10 0 0 2 0 0 1 43 
3 0 0 3 0 0 1 44 
6 0 0 4 0 0 1 45 
3 0 0 3 0 0 1 46 
5 0 0 3 0 0 1 47 
0 0 0 0 0 0 1 60 
0 0 0 0 0 0 2 49 50 
1 0 0 0 1 0 2 54 51 
8 0 0 0 5 0 2 54 51 
5 0 0 0 2 0 1 52 
1 0 0 0 3 0 2 56 53 
2 0 0 0 4 0 1 55 
1 0 0 0 4 0 1 55 
10 0 0 0 1 0 1 57 
7 0 0 0 2 0 1 57 
10 0 0 0 1 0 2 58 259 
3 0 0 0 2 0 1 59 
0 0 0 0 0 0 1 60 
0 0 0 0 0 0 5 61 73 85 97 109 
0 0 0 0 0 0 2 62 68 
3 0 0 0 0 1 1 63 
5 0 0 0 0 1 1 64 
3 0 0 0 0 2 2 70 65 
9 0 0 0 0 1 1 66 
10 0 0 0 0 3 1 67 
4 0 0 0 0 3 2 69 224 
4 0 0 0 0 4 1 71 
8 0 0 0 0 2 1 72 
4 0 0 0 0 2 1 72 
4 0 0 0 0 6 1 72 
0 0 0 0 0 0 1 121 
0 0 0 0 0 0 2 74 78 
2 0 0 1 0 0 1 75 
1 0 0 3 0 0 2 82 76 
3 0 0 2 0 0 1 77 
5 0 0 2 0 0 1 79 
9 0 0 4 0 0 2 83 81 
8 0 0 3 0 0 1 80 
10 0 0 2 0 0 2 81 133 
2 0 0 2 0 0 1 84 
1 0 0 4 0 0 1 84 
10 0 0 2 0 0 1 84 
0 0 0 0 0 0 1 121 
0 0 0 0 0 0 3 86 87 89 
4 0 1 0 0 0 1 88 
5 0 1 0 0 0 1 88 
5 0 2 0 0 0 1 90 
8 0 2 0 0 0 1 90 
10 0 4 0 0 0 2 93 91 
8 0 5 0 0 0 2 92 137 
2 0 1 0 0 0 1 94 
2 0 3 0 0 0 1 94 
6 0 2 0 0 0 1 95 
4 0 4 0 0 0 1 96 
0 0 0 0 0 0 1 121 
0 0 0 0 0 0 3 98 104 107 
4 0 0 0 0 1 1 99 
4 0 0 0 0 6 1 100 
7 0 0 0 0 1 2 106 101 
1 0 0 0 0 1 1 102 
10 0 0 0 0 4 1 103 
6 0 0 0 0 1 1 105 
5 0 0 0 0 5 2 106 252 
2 0 0 0 0 3 1 108 
4 0 0 0 0 1 1 108 
7 0 0 0 0 2 1 108 
0 0 0 0 0 0 1 121 
0 0 0 0 0 0 2 110 115 
4 1 0 0 0 0 2 119 111 
1 1 0 0 0 0 1 112 
7 3 0 0 0 0 1 113 
8 2 0 0 0 0 1 114 
6 4 0 0 0 0 2 118 116 
7 2 0 0 0 0 3 118 116 272 
6 3 0 0 0 0 1 117 
5 2 0 0 0 0 1 120 
4 3 0 0 0 0 1 120 
6 4 0 0 0 0 1 120 
0 0 0 0 0 0 1 121 
0 0 0 0 0 0 5 122 144 166 178 200 
0 0 0 0 0 0 2 123 126 
3 0 0 1 0 1 1 124 
3 0 0 1 0 3 2 132 125 
5 0 0 3 0 4 3 137 130 127 
7 0 0 1 0 3 3 137 130 127 
5 0 0 1 0 2 2 128 210 
1 0 0 3 0 2 1 129 
10 0 0 2 0 3 1 131 
5 0 0 6 0 1 1 131 
8 0 0 5 0 7 1 133 
1 0 0 3 0 2 1 133 
9 0 0 3 0 4 1 134 
1 0 0 2 0 3 1 135 
5 0 0 1 0 4 1 136 
4 0 0 2 0 2 2 142 138 
5 0 0 2 0 1 2 142 140 
3 0 0 2 0 2 1 139 
2 0 0 1 0 2 1 140 
2 0 0 1 0 1 1 141 
1 0 0 5 0 1 1 143 
10 0 0 5 0 2 1 143 
0 0 0 0 0 0 1 282 
0 0 0 0 0 0 3 145 157 274 
10 0 0 1 0 1 2 149 146 
9 0 0 1 0 3 1 147 
1 0 0 3 0 3 1 148 
2 0 0 7 0 1 2 154 150 
6 0 0 1 0 3 1 150 
8 0 0 3 0 4 1 151 
3 0 0 4 0 5 2 161 152 
5 0 0 2 0 4 1 153 
7 0 0 2 0 1 2 164 155 
9 0 0 2 0 5 2 164 155 
5 0 0 3 0 2 1 156 
7 0 0 2 0 1 1 158 
3 0 0 3 0 3 1 158 
2 0 0 2 0 2 1 159 
8 0 0 3 0 2 1 160 
4 0 0 2 0 3 1 162 
9 0 0 1 0 3 1 162 
7 0 0 4 0 1 1 163 
1 0 0 3 0 1 1 165 
3 0 0 1 0 2 1 165 
0 0 0 0 0 0 1 282 
0 0 0 0 0 0 2 167 173 
9 0 0 0 1 0 2 176 168 
1 0 0 0 3 0 1 169 
5 0 0 0 3 0 2 175 170 
5 0 0 0 2 0 2 171 262 
1 0 0 0 3 0 1 172 
1 0 0 0 2 0 1 174 
6 0 0 0 3 0 1 174 
7 0 0 0 3 0 1 177 
9 0 0 0 2 0 1 177 
1 0 0 0 3 0 1 177 
0 0 0 0 0 0 5 222 234 246 258 270 
0 0 0 0 0 0 3 179 191 192 
4 0 0 0 1 1 3 198 197 180 
8 0 0 0 2 3 1 181 
4 0 0 0 4 2 1 182 
6 0 0 0 4 3 1 183 
2 0 0 0 2 2 2 184 276 
7 0 0 0 1 2 1 185 
5 0 0 0 4 2 2 196 186 
7 0 0 0 2 1 1 187 
3 0 0 0 2 3 1 188 
3 0 0 0 5 3 1 189 
1 0 0 0 2 2 1 190 
5 0 0 0 1 3 1 193 
7 0 0 0 2 3 1 193 
4 0 0 0 3 3 2 197 195 
9 0 0 0 2 3 1 194 
9 0 0 0 3 2 1 195 
9 0 0 0 3 4 1 199 
5 0 0 0 1 2 1 199 
6 0 0 0 4 4 1 199 
5 0 0 0 2 2 1 199 
0 0 0 0 0 0 1 282 
0 0 0 0 0 0 1 201 
1 0 1 1 0 0 2 206 202 
8 0 4 2 0 0 2 209 203 
10 0 2 2 0 0 2 217 204 
5 0 3 2 0 0 1 205 
5 0 2 2 0 0 2 215 207 
2 0 1 2 0 0 3 217 215 210 
5 0 2 2 0 0 1 208 
9 0 2 3 0 0 1 210 
4 0 4 2 0 0 3 217 213 212 
8 0 3 3 0 0 2 213 211 
7 0 4 4 0 0 1 212 
7 0 2 3 0 0 1 214 
8 0 4 3 0 0 1 214 
10 0 3 2 0 0 1 216 
4 0 1 4 0 0 1 216 
2 0 2 4 0 0 1 218 
8 0 2 3 0 0 1 218 
4 0 2 3 0 0 1 219 
7 0 1 2 0 0 1 220 
5 0 5 1 0 0 1 221 
0 0 0 0 0 0 1 282 
0 0 0 0 0 0 3 223 227 231 
5 0 0 0 1 0 1 224 
2 0 0 0 5 0 2 230 225 
2 0 0 0 2 0 1 226 
4 0 0 0 2 0 1 228 
1 0 0 0 2 0 1 228 
4 0 0 0 2 0 1 229 
5 0 0 0 2 0 1 232 
10 0 0 0 1 0 1 232 
7 0 0 0 3 0 1 232 
2 0 0 0 5 0 1 233 
0 0 0 0 0 0 1 282 
0 0 0 0 0 0 1 235 
6 0 0 0 1 0 2 241 236 
8 0 0 0 2 0 1 237 
3 0 0 0 1 0 2 244 238 
9 0 0 0 4 0 2 243 239 
10 0 0 0 2 0 1 240 
3 0 0 0 1 0 1 242 
5 0 0 0 1 0 1 243 
3 0 0 0 6 0 1 245 
8 0 0 0 2 0 1 245 
1 0 0 0 5 0 1 245 
0 0 0 0 0 0 1 282 
0 0 0 0 0 0 2 247 248 
2 0 1 0 0 0 2 250 249 
8 0 1 0 0 0 2 250 249 
6 0 3 0 0 0 1 251 
1 0 3 0 0 0 1 251 
10 0 3 0 0 0 1 252 
10 0 3 0 0 0 2 254 253 
1 0 2 0 0 0 1 255 
7 0 2 0 0 0 1 255 
4 0 4 0 0 0 1 256 
2 0 3 0 0 0 1 257 
0 0 0 0 0 0 1 282 
0 0 0 0 0 0 2 259 260 
2 0 0 1 0 0 2 265 261 
3 0 0 2 0 0 2 265 263 
1 0 0 2 0 0 1 262 
3 0 0 3 0 0 1 263 
3 0 0 4 0 0 2 268 264 
2 0 0 1 0 0 1 266 
3 0 0 4 0 0 1 266 
3 0 0 3 0 0 1 267 
4 0 0 1 0 0 1 269 
1 0 0 4 0 0 1 269 
0 0 0 0 0 0 1 282 
0 0 0 0 0 0 1 271 
3 0 0 1 0 0 3 280 277 272 
6 0 0 1 0 0 1 273 
10 0 0 4 0 0 1 274 
1 0 0 2 0 0 2 279 275 
9 0 0 2 0 0 1 276 
10 0 0 4 0 0 1 278 
7 0 0 4 0 0 1 279 
2 0 0 1 0 0 1 281 
10 0 0 3 0 0 1 281 
2 0 0 3 0 0 1 281 
0 0 0 0 0 0 1 282 
0 0 0 0 0 0 0 
